c turning on binary mode checking
c parsing input formula with 259840 variables and 1039919 clauses
c finished parsing, read 47567302 bytes from proof file
c detected empty clause; start verification via backward checking
c 98460 of 1039919 clauses in core                            
c 184711 of 892445 lemmas in core using 3140245 resolution steps
c 0 RAT lemmas in core; 31911 redundant literals in core lemmas
s VERIFIED
c verification time: 9.778 seconds
